(synth-fun eq1 ( (x Int) (y Int) (z Int)) Int ((Start Int (x y  z 10
             (+ Start Start)
             (ite StartBool Start Start)))
 (StartBool Bool (               (>= Start Start)     (>= Start Start)  ))
))
